p tw 105 119
1 2
2 18
3 9
4 5
5 6
6 7
7 8
9 10
10 11
11 12
11 17
12 13
13 14
14 15
15 16
16 17
16 20
17 19
18 29
19 7
20 21
21 22
22 23
23 24
23 33
24 25
25 26
26 27
26 28
27 7
28 30
29 40
29 35
30 31
31 32
32 22
33 34
34 7
35 36
36 37
37 38
38 39
39 41
40 51
41 42
42 43
43 44
44 45
44 81
45 46
46 47
47 48
48 49
49 50
49 99
50 52
51 62
52 53
53 54
54 55
55 56
56 57
57 58
58 59
59 60
60 61
61 63
62 73
63 64
63 66
64 65
65 66
66 67
67 68
68 69
68 54
69 70
70 71
70 74
71 72
72 74
72 54
73 84
74 75
75 76
75 99
76 77
77 78
78 79
79 80
80 99
81 82
82 83
83 85
83 99
84 95
84 17
85 86
86 87
87 88
88 89
89 90
90 91
90 99
91 92
92 93
93 94
94 96
95 3
96 97
97 98
98 99
99 100
100 101
101 102
102 103
103 104
104 105
105 4
